3
deterministic SOAP/Valle-Oganov reference frame 0
O 0.000000 0.000000 0.000000
H 0.350000 0.900000 0.250000
H 0.700000 0.000000 0.500000
4
deterministic SOAP/Valle-Oganov reference frame 1
C 0.070000 0.480000 0.250000
H 0.420000 1.380000 0.500000
H 0.770000 0.480000 0.000000
H 1.120000 1.380000 0.250000
3
deterministic SOAP/Valle-Oganov reference frame 2
Si 0.140000 0.960000 0.500000
O 0.490000 0.060000 0.000000
O 0.840000 0.960000 0.250000
4
deterministic SOAP/Valle-Oganov reference frame 3
S 0.210000 1.350000 0.000000
O 0.560000 0.450000 0.250000
O 0.910000 1.350000 0.500000
O 1.260000 0.450000 0.000000
3
deterministic SOAP/Valle-Oganov reference frame 4
Cl 0.280000 0.030000 0.250000
C 0.630000 0.930000 0.500000
H 0.980000 0.030000 0.000000
4
deterministic SOAP/Valle-Oganov reference frame 5
H 0.000000 0.510000 0.500000
C 0.350000 1.410000 0.000000
O 0.700000 0.510000 0.250000
S 1.050000 1.410000 0.500000
4
deterministic SOAP/Valle-Oganov reference frame 6
O 0.070000 0.900000 0.000000
C 0.420000 0.000000 0.250000
H 0.770000 0.900000 0.500000
H 1.120000 0.000000 0.000000
4
deterministic SOAP/Valle-Oganov reference frame 7
Si 0.140000 1.380000 0.250000
O 0.490000 0.480000 0.500000
H 0.840000 1.380000 0.000000
H 1.190000 0.480000 0.250000
3
deterministic SOAP/Valle-Oganov reference frame 8
O 0.000000 0.000000 0.000000
H 1.000000 0.015000 0.000000
H -1.000000 0.015000 0.000000
4
deterministic SOAP/Valle-Oganov reference frame 9
C 0.280000 0.450000 0.000000
H 0.630000 1.350000 0.250000
H 0.980000 0.450000 0.500000
H 1.330000 1.350000 0.000000
3
deterministic SOAP/Valle-Oganov reference frame 10
Si 0.000000 0.930000 0.250000
O 0.350000 0.030000 0.500000
O 0.700000 0.930000 0.000000
3
deterministic SOAP/Valle-Oganov reference frame 11
O 0.000000 0.000000 0.000000
C 1.250000 0.020000 0.000000
H -1.100000 0.020000 0.000000
3
deterministic SOAP/Valle-Oganov reference frame 12
Cl 0.140000 0.000000 0.000000
C 0.490000 0.900000 0.250000
H 0.840000 0.000000 0.500000
4
deterministic SOAP/Valle-Oganov reference frame 13
H 0.210000 0.480000 0.250000
C 0.560000 1.380000 0.500000
O 0.910000 0.480000 0.000000
S 1.260000 1.380000 0.250000
4
deterministic SOAP/Valle-Oganov reference frame 14
O 0.280000 0.960000 0.500000
C 0.630000 0.060000 0.000000
H 0.980000 0.960000 0.250000
H 1.330000 0.060000 0.500000
4
deterministic SOAP/Valle-Oganov reference frame 15
Si 0.000000 1.350000 0.000000
O 0.350000 0.450000 0.250000
H 0.700000 1.350000 0.500000
H 1.050000 0.450000 0.000000
3
deterministic SOAP/Valle-Oganov reference frame 16
O 0.070000 0.030000 0.250000
H 0.420000 0.930000 0.500000
H 0.770000 0.030000 0.000000
4
deterministic SOAP/Valle-Oganov reference frame 17
C 0.140000 0.510000 0.500000
H 0.490000 1.410000 0.000000
H 0.840000 0.510000 0.250000
H 1.190000 1.410000 0.500000
3
deterministic SOAP/Valle-Oganov reference frame 18
Si 0.210000 0.900000 0.000000
O 0.560000 0.000000 0.250000
O 0.910000 0.900000 0.500000
4
deterministic SOAP/Valle-Oganov reference frame 19
S 0.280000 1.380000 0.250000
O 0.630000 0.480000 0.500000
O 0.980000 1.380000 0.000000
O 1.330000 0.480000 0.250000
3
deterministic SOAP/Valle-Oganov reference frame 20
Cl 0.000000 0.060000 0.500000
C 0.350000 0.960000 0.000000
H 0.700000 0.060000 0.250000
4
deterministic SOAP/Valle-Oganov reference frame 21
H 0.070000 0.450000 0.000000
C 0.420000 1.350000 0.250000
O 0.770000 0.450000 0.500000
S 1.120000 1.350000 0.000000
4
deterministic SOAP/Valle-Oganov reference frame 22
O 0.140000 0.930000 0.250000
C 0.490000 0.030000 0.500000
H 0.840000 0.930000 0.000000
H 1.190000 0.030000 0.250000
4
deterministic SOAP/Valle-Oganov reference frame 23
Si 0.210000 1.410000 0.500000
O 0.560000 0.510000 0.000000
H 0.910000 1.410000 0.250000
H 1.260000 0.510000 0.500000
3
deterministic SOAP/Valle-Oganov reference frame 24
O 0.280000 0.000000 0.000000
H 0.630000 0.900000 0.250000
H 0.980000 0.000000 0.500000
4
deterministic SOAP/Valle-Oganov reference frame 25
C 0.000000 0.480000 0.250000
H 0.350000 1.380000 0.500000
H 0.700000 0.480000 0.000000
H 1.050000 1.380000 0.250000
3
deterministic SOAP/Valle-Oganov reference frame 26
Si 0.070000 0.960000 0.500000
O 0.420000 0.060000 0.000000
O 0.770000 0.960000 0.250000
4
deterministic SOAP/Valle-Oganov reference frame 27
S 0.140000 1.350000 0.000000
O 0.490000 0.450000 0.250000
O 0.840000 1.350000 0.500000
O 1.190000 0.450000 0.000000
3
deterministic SOAP/Valle-Oganov reference frame 28
Cl 0.210000 0.030000 0.250000
C 0.560000 0.930000 0.500000
H 0.910000 0.030000 0.000000
4
deterministic SOAP/Valle-Oganov reference frame 29
H 0.280000 0.510000 0.500000
C 0.630000 1.410000 0.000000
O 0.980000 0.510000 0.250000
S 1.330000 1.410000 0.500000
4
deterministic SOAP/Valle-Oganov reference frame 30
O 0.000000 0.900000 0.000000
C 0.350000 0.000000 0.250000
H 0.700000 0.900000 0.500000
H 1.050000 0.000000 0.000000
4
deterministic SOAP/Valle-Oganov reference frame 31
Si 0.070000 1.380000 0.250000
O 0.420000 0.480000 0.500000
H 0.770000 1.380000 0.000000
H 1.120000 0.480000 0.250000
3
deterministic SOAP/Valle-Oganov reference frame 32
O 0.140000 0.060000 0.500000
H 0.490000 0.960000 0.000000
H 0.840000 0.060000 0.250000
4
deterministic SOAP/Valle-Oganov reference frame 33
C 0.210000 0.450000 0.000000
H 0.560000 1.350000 0.250000
H 0.910000 0.450000 0.500000
H 1.260000 1.350000 0.000000
3
deterministic SOAP/Valle-Oganov reference frame 34
Si 0.280000 0.930000 0.250000
O 0.630000 0.030000 0.500000
O 0.980000 0.930000 0.000000
4
deterministic SOAP/Valle-Oganov reference frame 35
S 0.000000 1.410000 0.500000
O 0.350000 0.510000 0.000000
O 0.700000 1.410000 0.250000
O 1.050000 0.510000 0.500000
3
deterministic SOAP/Valle-Oganov reference frame 36
Cl 0.070000 0.000000 0.000000
C 0.420000 0.900000 0.250000
H 0.770000 0.000000 0.500000
4
deterministic SOAP/Valle-Oganov reference frame 37
H 0.140000 0.480000 0.250000
C 0.490000 1.380000 0.500000
O 0.840000 0.480000 0.000000
S 1.190000 1.380000 0.250000
4
deterministic SOAP/Valle-Oganov reference frame 38
O 0.210000 0.960000 0.500000
C 0.560000 0.060000 0.000000
H 0.910000 0.960000 0.250000
H 1.260000 0.060000 0.500000
4
deterministic SOAP/Valle-Oganov reference frame 39
Si 0.280000 1.350000 0.000000
O 0.630000 0.450000 0.250000
H 0.980000 1.350000 0.500000
H 1.330000 0.450000 0.000000
3
deterministic SOAP/Valle-Oganov reference frame 40
O 0.000000 0.030000 0.250000
H 0.350000 0.930000 0.500000
H 0.700000 0.030000 0.000000
4
deterministic SOAP/Valle-Oganov reference frame 41
C 0.070000 0.510000 0.500000
H 0.420000 1.410000 0.000000
H 0.770000 0.510000 0.250000
H 1.120000 1.410000 0.500000
3
deterministic SOAP/Valle-Oganov reference frame 42
Si 0.140000 0.900000 0.000000
O 0.490000 0.000000 0.250000
O 0.840000 0.900000 0.500000
4
deterministic SOAP/Valle-Oganov reference frame 43
S 0.210000 1.380000 0.250000
O 0.560000 0.480000 0.500000
O 0.910000 1.380000 0.000000
O 1.260000 0.480000 0.250000
3
deterministic SOAP/Valle-Oganov reference frame 44
Cl 0.280000 0.060000 0.500000
C 0.630000 0.960000 0.000000
H 0.980000 0.060000 0.250000
4
deterministic SOAP/Valle-Oganov reference frame 45
H 0.000000 0.450000 0.000000
C 0.350000 1.350000 0.250000
O 0.700000 0.450000 0.500000
S 1.050000 1.350000 0.000000
4
deterministic SOAP/Valle-Oganov reference frame 46
O 0.070000 0.930000 0.250000
C 0.420000 0.030000 0.500000
H 0.770000 0.930000 0.000000
H 1.120000 0.030000 0.250000
4
deterministic SOAP/Valle-Oganov reference frame 47
Si 0.140000 1.410000 0.500000
O 0.490000 0.510000 0.000000
H 0.840000 1.410000 0.250000
H 1.190000 0.510000 0.500000
3
deterministic SOAP/Valle-Oganov reference frame 48
O 0.210000 0.000000 0.000000
H 0.560000 0.900000 0.250000
H 0.910000 0.000000 0.500000
4
deterministic SOAP/Valle-Oganov reference frame 49
C 0.280000 0.480000 0.250000
H 0.630000 1.380000 0.500000
H 0.980000 0.480000 0.000000
H 1.330000 1.380000 0.250000
3
deterministic SOAP/Valle-Oganov reference frame 50
Si 0.000000 0.960000 0.500000
O 0.350000 0.060000 0.000000
O 0.700000 0.960000 0.250000
4
deterministic SOAP/Valle-Oganov reference frame 51
S 0.070000 1.350000 0.000000
O 0.420000 0.450000 0.250000
O 0.770000 1.350000 0.500000
O 1.120000 0.450000 0.000000
3
deterministic SOAP/Valle-Oganov reference frame 52
Cl 0.140000 0.030000 0.250000
C 0.490000 0.930000 0.500000
H 0.840000 0.030000 0.000000
4
deterministic SOAP/Valle-Oganov reference frame 53
H 0.210000 0.510000 0.500000
C 0.560000 1.410000 0.000000
O 0.910000 0.510000 0.250000
S 1.260000 1.410000 0.500000
4
deterministic SOAP/Valle-Oganov reference frame 54
O 0.280000 0.900000 0.000000
C 0.630000 0.000000 0.250000
H 0.980000 0.900000 0.500000
H 1.330000 0.000000 0.000000
4
deterministic SOAP/Valle-Oganov reference frame 55
Si 0.000000 1.380000 0.250000
O 0.350000 0.480000 0.500000
H 0.700000 1.380000 0.000000
H 1.050000 0.480000 0.250000
3
deterministic SOAP/Valle-Oganov reference frame 56
O 0.070000 0.060000 0.500000
H 0.420000 0.960000 0.000000
H 0.770000 0.060000 0.250000
4
deterministic SOAP/Valle-Oganov reference frame 57
C 0.140000 0.450000 0.000000
H 0.490000 1.350000 0.250000
H 0.840000 0.450000 0.500000
H 1.190000 1.350000 0.000000
3
deterministic SOAP/Valle-Oganov reference frame 58
Si 0.210000 0.930000 0.250000
O 0.560000 0.030000 0.500000
O 0.910000 0.930000 0.000000
4
deterministic SOAP/Valle-Oganov reference frame 59
S 0.280000 1.410000 0.500000
O 0.630000 0.510000 0.000000
O 0.980000 1.410000 0.250000
O 1.330000 0.510000 0.500000
3
deterministic SOAP/Valle-Oganov reference frame 60
Cl 0.000000 0.000000 0.000000
C 0.350000 0.900000 0.250000
H 0.700000 0.000000 0.500000
4
deterministic SOAP/Valle-Oganov reference frame 61
H 0.070000 0.480000 0.250000
C 0.420000 1.380000 0.500000
O 0.770000 0.480000 0.000000
S 1.120000 1.380000 0.250000
4
deterministic SOAP/Valle-Oganov reference frame 62
O 0.140000 0.960000 0.500000
C 0.490000 0.060000 0.000000
H 0.840000 0.960000 0.250000
H 1.190000 0.060000 0.500000
4
deterministic SOAP/Valle-Oganov reference frame 63
Si 0.210000 1.350000 0.000000
O 0.560000 0.450000 0.250000
H 0.910000 1.350000 0.500000
H 1.260000 0.450000 0.000000
3
deterministic SOAP/Valle-Oganov reference frame 64
O 0.280000 0.030000 0.250000
H 0.630000 0.930000 0.500000
H 0.980000 0.030000 0.000000
4
deterministic SOAP/Valle-Oganov reference frame 65
C 0.000000 0.510000 0.500000
H 0.350000 1.410000 0.000000
H 0.700000 0.510000 0.250000
H 1.050000 1.410000 0.500000
3
deterministic SOAP/Valle-Oganov reference frame 66
Si 0.070000 0.900000 0.000000
O 0.420000 0.000000 0.250000
O 0.770000 0.900000 0.500000
4
deterministic SOAP/Valle-Oganov reference frame 67
S 0.140000 1.380000 0.250000
O 0.490000 0.480000 0.500000
O 0.840000 1.380000 0.000000
O 1.190000 0.480000 0.250000
3
deterministic SOAP/Valle-Oganov reference frame 68
Cl 0.210000 0.060000 0.500000
C 0.560000 0.960000 0.000000
H 0.910000 0.060000 0.250000
4
deterministic SOAP/Valle-Oganov reference frame 69
H 0.280000 0.450000 0.000000
C 0.630000 1.350000 0.250000
O 0.980000 0.450000 0.500000
S 1.330000 1.350000 0.000000
4
deterministic SOAP/Valle-Oganov reference frame 70
O 0.000000 0.930000 0.250000
C 0.350000 0.030000 0.500000
H 0.700000 0.930000 0.000000
H 1.050000 0.030000 0.250000
4
deterministic SOAP/Valle-Oganov reference frame 71
Si 0.070000 1.410000 0.500000
O 0.420000 0.510000 0.000000
H 0.770000 1.410000 0.250000
H 1.120000 0.510000 0.500000
3
deterministic SOAP/Valle-Oganov reference frame 72
O 0.140000 0.000000 0.000000
H 0.490000 0.900000 0.250000
H 0.840000 0.000000 0.500000
4
deterministic SOAP/Valle-Oganov reference frame 73
C 0.210000 0.480000 0.250000
H 0.560000 1.380000 0.500000
H 0.910000 0.480000 0.000000
H 1.260000 1.380000 0.250000
3
deterministic SOAP/Valle-Oganov reference frame 74
Si 0.280000 0.960000 0.500000
O 0.630000 0.060000 0.000000
O 0.980000 0.960000 0.250000
4
deterministic SOAP/Valle-Oganov reference frame 75
S 0.000000 1.350000 0.000000
O 0.350000 0.450000 0.250000
O 0.700000 1.350000 0.500000
O 1.050000 0.450000 0.000000
3
deterministic SOAP/Valle-Oganov reference frame 76
Cl 0.070000 0.030000 0.250000
C 0.420000 0.930000 0.500000
H 0.770000 0.030000 0.000000
4
deterministic SOAP/Valle-Oganov reference frame 77
H 0.140000 0.510000 0.500000
C 0.490000 1.410000 0.000000
O 0.840000 0.510000 0.250000
S 1.190000 1.410000 0.500000
4
deterministic SOAP/Valle-Oganov reference frame 78
O 0.210000 0.900000 0.000000
C 0.560000 0.000000 0.250000
H 0.910000 0.900000 0.500000
H 1.260000 0.000000 0.000000
4
deterministic SOAP/Valle-Oganov reference frame 79
Si 0.280000 1.380000 0.250000
O 0.630000 0.480000 0.500000
H 0.980000 1.380000 0.000000
H 1.330000 0.480000 0.250000
3
deterministic SOAP/Valle-Oganov reference frame 80
O 0.000000 0.060000 0.500000
H 0.350000 0.960000 0.000000
H 0.700000 0.060000 0.250000
4
deterministic SOAP/Valle-Oganov reference frame 81
C 0.070000 0.450000 0.000000
H 0.420000 1.350000 0.250000
H 0.770000 0.450000 0.500000
H 1.120000 1.350000 0.000000
3
deterministic SOAP/Valle-Oganov reference frame 82
Si 0.140000 0.930000 0.250000
O 0.490000 0.030000 0.500000
O 0.840000 0.930000 0.000000
4
deterministic SOAP/Valle-Oganov reference frame 83
S 0.210000 1.410000 0.500000
O 0.560000 0.510000 0.000000
O 0.910000 1.410000 0.250000
O 1.260000 0.510000 0.500000
3
deterministic SOAP/Valle-Oganov reference frame 84
Cl 0.280000 0.000000 0.000000
C 0.630000 0.900000 0.250000
H 0.980000 0.000000 0.500000
4
deterministic SOAP/Valle-Oganov reference frame 85
H 0.000000 0.480000 0.250000
C 0.350000 1.380000 0.500000
O 0.700000 0.480000 0.000000
S 1.050000 1.380000 0.250000
4
deterministic SOAP/Valle-Oganov reference frame 86
O 0.070000 0.960000 0.500000
C 0.420000 0.060000 0.000000
H 0.770000 0.960000 0.250000
H 1.120000 0.060000 0.500000
4
deterministic SOAP/Valle-Oganov reference frame 87
Si 0.140000 1.350000 0.000000
O 0.490000 0.450000 0.250000
H 0.840000 1.350000 0.500000
H 1.190000 0.450000 0.000000
3
deterministic SOAP/Valle-Oganov reference frame 88
O 0.210000 0.030000 0.250000
H 0.560000 0.930000 0.500000
H 0.910000 0.030000 0.000000
4
deterministic SOAP/Valle-Oganov reference frame 89
C 0.280000 0.510000 0.500000
H 0.630000 1.410000 0.000000
H 0.980000 0.510000 0.250000
H 1.330000 1.410000 0.500000
3
deterministic SOAP/Valle-Oganov reference frame 90
Si 0.000000 0.900000 0.000000
O 0.350000 0.000000 0.250000
O 0.700000 0.900000 0.500000
4
deterministic SOAP/Valle-Oganov reference frame 91
S 0.070000 1.380000 0.250000
O 0.420000 0.480000 0.500000
O 0.770000 1.380000 0.000000
O 1.120000 0.480000 0.250000
3
deterministic SOAP/Valle-Oganov reference frame 92
Cl 0.140000 0.060000 0.500000
C 0.490000 0.960000 0.000000
H 0.840000 0.060000 0.250000
4
deterministic SOAP/Valle-Oganov reference frame 93
H 0.210000 0.450000 0.000000
C 0.560000 1.350000 0.250000
O 0.910000 0.450000 0.500000
S 1.260000 1.350000 0.000000
4
deterministic SOAP/Valle-Oganov reference frame 94
O 0.280000 0.930000 0.250000
C 0.630000 0.030000 0.500000
H 0.980000 0.930000 0.000000
H 1.330000 0.030000 0.250000
4
deterministic SOAP/Valle-Oganov reference frame 95
Si 0.000000 1.410000 0.500000
O 0.350000 0.510000 0.000000
H 0.700000 1.410000 0.250000
H 1.050000 0.510000 0.500000
3
deterministic SOAP/Valle-Oganov reference frame 96
O 0.070000 0.000000 0.000000
H 0.420000 0.900000 0.250000
H 0.770000 0.000000 0.500000
4
deterministic SOAP/Valle-Oganov reference frame 97
C 0.140000 0.480000 0.250000
H 0.490000 1.380000 0.500000
H 0.840000 0.480000 0.000000
H 1.190000 1.380000 0.250000
3
deterministic SOAP/Valle-Oganov reference frame 98
Si 0.210000 0.960000 0.500000
O 0.560000 0.060000 0.000000
O 0.910000 0.960000 0.250000
4
deterministic SOAP/Valle-Oganov reference frame 99
S 0.280000 1.350000 0.000000
O 0.630000 0.450000 0.250000
O 0.980000 1.350000 0.500000
O 1.330000 0.450000 0.000000
3
deterministic SOAP/Valle-Oganov reference frame 100
Cl 0.000000 0.030000 0.250000
C 0.350000 0.930000 0.500000
H 0.700000 0.030000 0.000000
4
deterministic SOAP/Valle-Oganov reference frame 101
H 0.070000 0.510000 0.500000
C 0.420000 1.410000 0.000000
O 0.770000 0.510000 0.250000
S 1.120000 1.410000 0.500000
4
deterministic SOAP/Valle-Oganov reference frame 102
O 0.140000 0.900000 0.000000
C 0.490000 0.000000 0.250000
H 0.840000 0.900000 0.500000
H 1.190000 0.000000 0.000000
4
deterministic SOAP/Valle-Oganov reference frame 103
Si 0.210000 1.380000 0.250000
O 0.560000 0.480000 0.500000
H 0.910000 1.380000 0.000000
H 1.260000 0.480000 0.250000
3
deterministic SOAP/Valle-Oganov reference frame 104
O 0.280000 0.060000 0.500000
H 0.630000 0.960000 0.000000
H 0.980000 0.060000 0.250000
4
deterministic SOAP/Valle-Oganov reference frame 105
C 0.000000 0.450000 0.000000
H 0.350000 1.350000 0.250000
H 0.700000 0.450000 0.500000
H 1.050000 1.350000 0.000000
3
deterministic SOAP/Valle-Oganov reference frame 106
Si 0.070000 0.930000 0.250000
O 0.420000 0.030000 0.500000
O 0.770000 0.930000 0.000000
4
deterministic SOAP/Valle-Oganov reference frame 107
S 0.140000 1.410000 0.500000
O 0.490000 0.510000 0.000000
O 0.840000 1.410000 0.250000
O 1.190000 0.510000 0.500000
3
deterministic SOAP/Valle-Oganov reference frame 108
Cl 0.210000 0.000000 0.000000
C 0.560000 0.900000 0.250000
H 0.910000 0.000000 0.500000
4
deterministic SOAP/Valle-Oganov reference frame 109
H 0.280000 0.480000 0.250000
C 0.630000 1.380000 0.500000
O 0.980000 0.480000 0.000000
S 1.330000 1.380000 0.250000
4
deterministic SOAP/Valle-Oganov reference frame 110
O 0.000000 0.960000 0.500000
C 0.350000 0.060000 0.000000
H 0.700000 0.960000 0.250000
H 1.050000 0.060000 0.500000
4
deterministic SOAP/Valle-Oganov reference frame 111
Si 0.070000 1.350000 0.000000
O 0.420000 0.450000 0.250000
H 0.770000 1.350000 0.500000
H 1.120000 0.450000 0.000000
3
deterministic SOAP/Valle-Oganov reference frame 112
O 0.140000 0.030000 0.250000
H 0.490000 0.930000 0.500000
H 0.840000 0.030000 0.000000
4
deterministic SOAP/Valle-Oganov reference frame 113
C 0.210000 0.510000 0.500000
H 0.560000 1.410000 0.000000
H 0.910000 0.510000 0.250000
H 1.260000 1.410000 0.500000
3
deterministic SOAP/Valle-Oganov reference frame 114
Si 0.280000 0.900000 0.000000
O 0.630000 0.000000 0.250000
O 0.980000 0.900000 0.500000
4
deterministic SOAP/Valle-Oganov reference frame 115
S 0.000000 1.380000 0.250000
O 0.350000 0.480000 0.500000
O 0.700000 1.380000 0.000000
O 1.050000 0.480000 0.250000
3
deterministic SOAP/Valle-Oganov reference frame 116
Cl 0.070000 0.060000 0.500000
C 0.420000 0.960000 0.000000
H 0.770000 0.060000 0.250000
4
deterministic SOAP/Valle-Oganov reference frame 117
H 0.140000 0.450000 0.000000
C 0.490000 1.350000 0.250000
O 0.840000 0.450000 0.500000
S 1.190000 1.350000 0.000000
4
deterministic SOAP/Valle-Oganov reference frame 118
O 0.210000 0.930000 0.250000
C 0.560000 0.030000 0.500000
H 0.910000 0.930000 0.000000
H 1.260000 0.030000 0.250000
4
deterministic SOAP/Valle-Oganov reference frame 119
Si 0.280000 1.410000 0.500000
O 0.630000 0.510000 0.000000
H 0.980000 1.410000 0.250000
H 1.330000 0.510000 0.500000
3
deterministic SOAP/Valle-Oganov reference frame 120
O 0.000000 0.000000 0.000000
H 0.350000 0.900000 0.250000
H 0.700000 0.000000 0.500000
4
deterministic SOAP/Valle-Oganov reference frame 121
C 0.070000 0.480000 0.250000
H 0.420000 1.380000 0.500000
H 0.770000 0.480000 0.000000
H 1.120000 1.380000 0.250000
3
deterministic SOAP/Valle-Oganov reference frame 122
Si 0.140000 0.960000 0.500000
O 0.490000 0.060000 0.000000
O 0.840000 0.960000 0.250000
4
deterministic SOAP/Valle-Oganov reference frame 123
S 0.210000 1.350000 0.000000
O 0.560000 0.450000 0.250000
O 0.910000 1.350000 0.500000
O 1.260000 0.450000 0.000000
3
deterministic SOAP/Valle-Oganov reference frame 124
Cl 0.280000 0.030000 0.250000
C 0.630000 0.930000 0.500000
H 0.980000 0.030000 0.000000
4
deterministic SOAP/Valle-Oganov reference frame 125
H 0.000000 0.510000 0.500000
C 0.350000 1.410000 0.000000
O 0.700000 0.510000 0.250000
S 1.050000 1.410000 0.500000
4
deterministic SOAP/Valle-Oganov reference frame 126
O 0.070000 0.900000 0.000000
C 0.420000 0.000000 0.250000
H 0.770000 0.900000 0.500000
H 1.120000 0.000000 0.000000
4
deterministic SOAP/Valle-Oganov reference frame 127
Si 0.140000 1.380000 0.250000
O 0.490000 0.480000 0.500000
H 0.840000 1.380000 0.000000
H 1.190000 0.480000 0.250000
3
deterministic SOAP/Valle-Oganov reference frame 128
O 0.210000 0.060000 0.500000
H 0.560000 0.960000 0.000000
H 0.910000 0.060000 0.250000
4
deterministic SOAP/Valle-Oganov reference frame 129
C 0.280000 0.450000 0.000000
H 0.630000 1.350000 0.250000
H 0.980000 0.450000 0.500000
H 1.330000 1.350000 0.000000
3
deterministic SOAP/Valle-Oganov reference frame 130
Si 0.000000 0.930000 0.250000
O 0.350000 0.030000 0.500000
O 0.700000 0.930000 0.000000
4
deterministic SOAP/Valle-Oganov reference frame 131
S 0.070000 1.410000 0.500000
O 0.420000 0.510000 0.000000
O 0.770000 1.410000 0.250000
O 1.120000 0.510000 0.500000
3
deterministic SOAP/Valle-Oganov reference frame 132
Cl 0.140000 0.000000 0.000000
C 0.490000 0.900000 0.250000
H 0.840000 0.000000 0.500000
4
deterministic SOAP/Valle-Oganov reference frame 133
H 0.210000 0.480000 0.250000
C 0.560000 1.380000 0.500000
O 0.910000 0.480000 0.000000
S 1.260000 1.380000 0.250000
4
deterministic SOAP/Valle-Oganov reference frame 134
O 0.280000 0.960000 0.500000
C 0.630000 0.060000 0.000000
H 0.980000 0.960000 0.250000
H 1.330000 0.060000 0.500000
4
deterministic SOAP/Valle-Oganov reference frame 135
Si 0.000000 1.350000 0.000000
O 0.350000 0.450000 0.250000
H 0.700000 1.350000 0.500000
H 1.050000 0.450000 0.000000
3
deterministic SOAP/Valle-Oganov reference frame 136
O 0.070000 0.030000 0.250000
H 0.420000 0.930000 0.500000
H 0.770000 0.030000 0.000000
4
deterministic SOAP/Valle-Oganov reference frame 137
C 0.140000 0.510000 0.500000
H 0.490000 1.410000 0.000000
H 0.840000 0.510000 0.250000
H 1.190000 1.410000 0.500000
3
deterministic SOAP/Valle-Oganov reference frame 138
Si 0.210000 0.900000 0.000000
O 0.560000 0.000000 0.250000
O 0.910000 0.900000 0.500000
4
deterministic SOAP/Valle-Oganov reference frame 139
S 0.280000 1.380000 0.250000
O 0.630000 0.480000 0.500000
O 0.980000 1.380000 0.000000
O 1.330000 0.480000 0.250000
3
deterministic SOAP/Valle-Oganov reference frame 140
Cl 0.000000 0.060000 0.500000
C 0.350000 0.960000 0.000000
H 0.700000 0.060000 0.250000
4
deterministic SOAP/Valle-Oganov reference frame 141
H 0.070000 0.450000 0.000000
C 0.420000 1.350000 0.250000
O 0.770000 0.450000 0.500000
S 1.120000 1.350000 0.000000
4
deterministic SOAP/Valle-Oganov reference frame 142
O 0.140000 0.930000 0.250000
C 0.490000 0.030000 0.500000
H 0.840000 0.930000 0.000000
H 1.190000 0.030000 0.250000
4
deterministic SOAP/Valle-Oganov reference frame 143
Si 0.210000 1.410000 0.500000
O 0.560000 0.510000 0.000000
H 0.910000 1.410000 0.250000
H 1.260000 0.510000 0.500000
3
deterministic SOAP/Valle-Oganov reference frame 144
O 0.280000 0.000000 0.000000
H 0.630000 0.900000 0.250000
H 0.980000 0.000000 0.500000
4
deterministic SOAP/Valle-Oganov reference frame 145
C 0.000000 0.480000 0.250000
H 0.350000 1.380000 0.500000
H 0.700000 0.480000 0.000000
H 1.050000 1.380000 0.250000
3
deterministic SOAP/Valle-Oganov reference frame 146
Si 0.070000 0.960000 0.500000
O 0.420000 0.060000 0.000000
O 0.770000 0.960000 0.250000
4
deterministic SOAP/Valle-Oganov reference frame 147
S 0.140000 1.350000 0.000000
O 0.490000 0.450000 0.250000
O 0.840000 1.350000 0.500000
O 1.190000 0.450000 0.000000
3
deterministic SOAP/Valle-Oganov reference frame 148
Cl 0.210000 0.030000 0.250000
C 0.560000 0.930000 0.500000
H 0.910000 0.030000 0.000000
4
deterministic SOAP/Valle-Oganov reference frame 149
H 0.280000 0.510000 0.500000
C 0.630000 1.410000 0.000000
O 0.980000 0.510000 0.250000
S 1.330000 1.410000 0.500000
4
deterministic SOAP/Valle-Oganov reference frame 150
O 0.000000 0.900000 0.000000
C 0.350000 0.000000 0.250000
H 0.700000 0.900000 0.500000
H 1.050000 0.000000 0.000000
4
deterministic SOAP/Valle-Oganov reference frame 151
Si 0.070000 1.380000 0.250000
O 0.420000 0.480000 0.500000
H 0.770000 1.380000 0.000000
H 1.120000 0.480000 0.250000
3
deterministic SOAP/Valle-Oganov reference frame 152
O 0.140000 0.060000 0.500000
H 0.490000 0.960000 0.000000
H 0.840000 0.060000 0.250000
4
deterministic SOAP/Valle-Oganov reference frame 153
C 0.210000 0.450000 0.000000
H 0.560000 1.350000 0.250000
H 0.910000 0.450000 0.500000
H 1.260000 1.350000 0.000000
3
deterministic SOAP/Valle-Oganov reference frame 154
Si 0.280000 0.930000 0.250000
O 0.630000 0.030000 0.500000
O 0.980000 0.930000 0.000000
4
deterministic SOAP/Valle-Oganov reference frame 155
S 0.000000 1.410000 0.500000
O 0.350000 0.510000 0.000000
O 0.700000 1.410000 0.250000
O 1.050000 0.510000 0.500000
3
deterministic SOAP/Valle-Oganov reference frame 156
Cl 0.070000 0.000000 0.000000
C 0.420000 0.900000 0.250000
H 0.770000 0.000000 0.500000
4
deterministic SOAP/Valle-Oganov reference frame 157
H 0.140000 0.480000 0.250000
C 0.490000 1.380000 0.500000
O 0.840000 0.480000 0.000000
S 1.190000 1.380000 0.250000
4
deterministic SOAP/Valle-Oganov reference frame 158
O 0.210000 0.960000 0.500000
C 0.560000 0.060000 0.000000
H 0.910000 0.960000 0.250000
H 1.260000 0.060000 0.500000
4
deterministic SOAP/Valle-Oganov reference frame 159
Si 0.280000 1.350000 0.000000
O 0.630000 0.450000 0.250000
H 0.980000 1.350000 0.500000
H 1.330000 0.450000 0.000000
3
deterministic SOAP/Valle-Oganov reference frame 160
O 0.000000 0.030000 0.250000
H 0.350000 0.930000 0.500000
H 0.700000 0.030000 0.000000
4
deterministic SOAP/Valle-Oganov reference frame 161
C 0.070000 0.510000 0.500000
H 0.420000 1.410000 0.000000
H 0.770000 0.510000 0.250000
H 1.120000 1.410000 0.500000
3
deterministic SOAP/Valle-Oganov reference frame 162
Si 0.140000 0.900000 0.000000
O 0.490000 0.000000 0.250000
O 0.840000 0.900000 0.500000
4
deterministic SOAP/Valle-Oganov reference frame 163
S 0.210000 1.380000 0.250000
O 0.560000 0.480000 0.500000
O 0.910000 1.380000 0.000000
O 1.260000 0.480000 0.250000
3
deterministic SOAP/Valle-Oganov reference frame 164
Cl 0.280000 0.060000 0.500000
C 0.630000 0.960000 0.000000
H 0.980000 0.060000 0.250000
4
deterministic SOAP/Valle-Oganov reference frame 165
H 0.000000 0.450000 0.000000
C 0.350000 1.350000 0.250000
O 0.700000 0.450000 0.500000
S 1.050000 1.350000 0.000000
4
deterministic SOAP/Valle-Oganov reference frame 166
O 0.070000 0.930000 0.250000
C 0.420000 0.030000 0.500000
H 0.770000 0.930000 0.000000
H 1.120000 0.030000 0.250000
4
deterministic SOAP/Valle-Oganov reference frame 167
Si 0.140000 1.410000 0.500000
O 0.490000 0.510000 0.000000
H 0.840000 1.410000 0.250000
H 1.190000 0.510000 0.500000
3
deterministic SOAP/Valle-Oganov reference frame 168
O 0.210000 0.000000 0.000000
H 0.560000 0.900000 0.250000
H 0.910000 0.000000 0.500000
4
deterministic SOAP/Valle-Oganov reference frame 169
C 0.280000 0.480000 0.250000
H 0.630000 1.380000 0.500000
H 0.980000 0.480000 0.000000
H 1.330000 1.380000 0.250000
3
deterministic SOAP/Valle-Oganov reference frame 170
Si 0.000000 0.960000 0.500000
O 0.350000 0.060000 0.000000
O 0.700000 0.960000 0.250000
4
deterministic SOAP/Valle-Oganov reference frame 171
S 0.070000 1.350000 0.000000
O 0.420000 0.450000 0.250000
O 0.770000 1.350000 0.500000
O 1.120000 0.450000 0.000000
3
deterministic SOAP/Valle-Oganov reference frame 172
Cl 0.140000 0.030000 0.250000
C 0.490000 0.930000 0.500000
H 0.840000 0.030000 0.000000
4
deterministic SOAP/Valle-Oganov reference frame 173
H 0.210000 0.510000 0.500000
C 0.560000 1.410000 0.000000
O 0.910000 0.510000 0.250000
S 1.260000 1.410000 0.500000
4
deterministic SOAP/Valle-Oganov reference frame 174
O 0.280000 0.900000 0.000000
C 0.630000 0.000000 0.250000
H 0.980000 0.900000 0.500000
H 1.330000 0.000000 0.000000
4
deterministic SOAP/Valle-Oganov reference frame 175
Si 0.000000 1.380000 0.250000
O 0.350000 0.480000 0.500000
H 0.700000 1.380000 0.000000
H 1.050000 0.480000 0.250000
3
deterministic SOAP/Valle-Oganov reference frame 176
O 0.070000 0.060000 0.500000
H 0.420000 0.960000 0.000000
H 0.770000 0.060000 0.250000
4
deterministic SOAP/Valle-Oganov reference frame 177
C 0.140000 0.450000 0.000000
H 0.490000 1.350000 0.250000
H 0.840000 0.450000 0.500000
H 1.190000 1.350000 0.000000
3
deterministic SOAP/Valle-Oganov reference frame 178
Si 0.210000 0.930000 0.250000
O 0.560000 0.030000 0.500000
O 0.910000 0.930000 0.000000
4
deterministic SOAP/Valle-Oganov reference frame 179
S 0.280000 1.410000 0.500000
O 0.630000 0.510000 0.000000
O 0.980000 1.410000 0.250000
O 1.330000 0.510000 0.500000
3
deterministic SOAP/Valle-Oganov reference frame 180
Cl 0.000000 0.000000 0.000000
C 0.350000 0.900000 0.250000
H 0.700000 0.000000 0.500000
4
deterministic SOAP/Valle-Oganov reference frame 181
H 0.070000 0.480000 0.250000
C 0.420000 1.380000 0.500000
O 0.770000 0.480000 0.000000
S 1.120000 1.380000 0.250000
4
deterministic SOAP/Valle-Oganov reference frame 182
O 0.140000 0.960000 0.500000
C 0.490000 0.060000 0.000000
H 0.840000 0.960000 0.250000
H 1.190000 0.060000 0.500000
4
deterministic SOAP/Valle-Oganov reference frame 183
Si 0.210000 1.350000 0.000000
O 0.560000 0.450000 0.250000
H 0.910000 1.350000 0.500000
H 1.260000 0.450000 0.000000
3
deterministic SOAP/Valle-Oganov reference frame 184
O 0.280000 0.030000 0.250000
H 0.630000 0.930000 0.500000
H 0.980000 0.030000 0.000000
4
deterministic SOAP/Valle-Oganov reference frame 185
C 0.000000 0.510000 0.500000
H 0.350000 1.410000 0.000000
H 0.700000 0.510000 0.250000
H 1.050000 1.410000 0.500000
3
deterministic SOAP/Valle-Oganov reference frame 186
Si 0.070000 0.900000 0.000000
O 0.420000 0.000000 0.250000
O 0.770000 0.900000 0.500000
4
deterministic SOAP/Valle-Oganov reference frame 187
S 0.140000 1.380000 0.250000
O 0.490000 0.480000 0.500000
O 0.840000 1.380000 0.000000
O 1.190000 0.480000 0.250000
3
deterministic SOAP/Valle-Oganov reference frame 188
Cl 0.210000 0.060000 0.500000
C 0.560000 0.960000 0.000000
H 0.910000 0.060000 0.250000
4
deterministic SOAP/Valle-Oganov reference frame 189
H 0.280000 0.450000 0.000000
C 0.630000 1.350000 0.250000
O 0.980000 0.450000 0.500000
S 1.330000 1.350000 0.000000
4
deterministic SOAP/Valle-Oganov reference frame 190
O 0.000000 0.930000 0.250000
C 0.350000 0.030000 0.500000
H 0.700000 0.930000 0.000000
H 1.050000 0.030000 0.250000
4
deterministic SOAP/Valle-Oganov reference frame 191
Si 0.070000 1.410000 0.500000
O 0.420000 0.510000 0.000000
H 0.770000 1.410000 0.250000
H 1.120000 0.510000 0.500000
3
deterministic SOAP/Valle-Oganov reference frame 192
O 0.140000 0.000000 0.000000
H 0.490000 0.900000 0.250000
H 0.840000 0.000000 0.500000
4
deterministic SOAP/Valle-Oganov reference frame 193
C 0.210000 0.480000 0.250000
H 0.560000 1.380000 0.500000
H 0.910000 0.480000 0.000000
H 1.260000 1.380000 0.250000
3
deterministic SOAP/Valle-Oganov reference frame 194
Si 0.280000 0.960000 0.500000
O 0.630000 0.060000 0.000000
O 0.980000 0.960000 0.250000
4
deterministic SOAP/Valle-Oganov reference frame 195
S 0.000000 1.350000 0.000000
O 0.350000 0.450000 0.250000
O 0.700000 1.350000 0.500000
O 1.050000 0.450000 0.000000
3
deterministic SOAP/Valle-Oganov reference frame 196
Cl 0.070000 0.030000 0.250000
C 0.420000 0.930000 0.500000
H 0.770000 0.030000 0.000000
4
deterministic SOAP/Valle-Oganov reference frame 197
H 0.140000 0.510000 0.500000
C 0.490000 1.410000 0.000000
O 0.840000 0.510000 0.250000
S 1.190000 1.410000 0.500000
4
deterministic SOAP/Valle-Oganov reference frame 198
O 0.210000 0.900000 0.000000
C 0.560000 0.000000 0.250000
H 0.910000 0.900000 0.500000
H 1.260000 0.000000 0.000000
4
deterministic SOAP/Valle-Oganov reference frame 199
Si 0.280000 1.380000 0.250000
O 0.630000 0.480000 0.500000
H 0.980000 1.380000 0.000000
H 1.330000 0.480000 0.250000
3
deterministic SOAP/Valle-Oganov reference frame 200
O 0.000000 0.060000 0.500000
H 0.350000 0.960000 0.000000
H 0.700000 0.060000 0.250000
4
deterministic SOAP/Valle-Oganov reference frame 201
C 0.070000 0.450000 0.000000
H 0.420000 1.350000 0.250000
H 0.770000 0.450000 0.500000
H 1.120000 1.350000 0.000000
3
deterministic SOAP/Valle-Oganov reference frame 202
Si 0.140000 0.930000 0.250000
O 0.490000 0.030000 0.500000
O 0.840000 0.930000 0.000000
4
deterministic SOAP/Valle-Oganov reference frame 203
S 0.210000 1.410000 0.500000
O 0.560000 0.510000 0.000000
O 0.910000 1.410000 0.250000
O 1.260000 0.510000 0.500000
3
deterministic SOAP/Valle-Oganov reference frame 204
Cl 0.280000 0.000000 0.000000
C 0.630000 0.900000 0.250000
H 0.980000 0.000000 0.500000
4
deterministic SOAP/Valle-Oganov reference frame 205
H 0.000000 0.480000 0.250000
C 0.350000 1.380000 0.500000
O 0.700000 0.480000 0.000000
S 1.050000 1.380000 0.250000
4
deterministic SOAP/Valle-Oganov reference frame 206
O 0.070000 0.960000 0.500000
C 0.420000 0.060000 0.000000
H 0.770000 0.960000 0.250000
H 1.120000 0.060000 0.500000
4
deterministic SOAP/Valle-Oganov reference frame 207
Si 0.140000 1.350000 0.000000
O 0.490000 0.450000 0.250000
H 0.840000 1.350000 0.500000
H 1.190000 0.450000 0.000000
3
deterministic SOAP/Valle-Oganov reference frame 208
O 0.210000 0.030000 0.250000
H 0.560000 0.930000 0.500000
H 0.910000 0.030000 0.000000
4
deterministic SOAP/Valle-Oganov reference frame 209
C 0.280000 0.510000 0.500000
H 0.630000 1.410000 0.000000
H 0.980000 0.510000 0.250000
H 1.330000 1.410000 0.500000
3
deterministic SOAP/Valle-Oganov reference frame 210
Si 0.000000 0.900000 0.000000
O 0.350000 0.000000 0.250000
O 0.700000 0.900000 0.500000
4
deterministic SOAP/Valle-Oganov reference frame 211
S 0.070000 1.380000 0.250000
O 0.420000 0.480000 0.500000
O 0.770000 1.380000 0.000000
O 1.120000 0.480000 0.250000
3
deterministic SOAP/Valle-Oganov reference frame 212
Cl 0.140000 0.060000 0.500000
C 0.490000 0.960000 0.000000
H 0.840000 0.060000 0.250000
4
deterministic SOAP/Valle-Oganov reference frame 213
H 0.210000 0.450000 0.000000
C 0.560000 1.350000 0.250000
O 0.910000 0.450000 0.500000
S 1.260000 1.350000 0.000000
4
deterministic SOAP/Valle-Oganov reference frame 214
O 0.280000 0.930000 0.250000
C 0.630000 0.030000 0.500000
H 0.980000 0.930000 0.000000
H 1.330000 0.030000 0.250000
4
deterministic SOAP/Valle-Oganov reference frame 215
Si 0.000000 1.410000 0.500000
O 0.350000 0.510000 0.000000
H 0.700000 1.410000 0.250000
H 1.050000 0.510000 0.500000
3
deterministic SOAP/Valle-Oganov reference frame 216
O 0.070000 0.000000 0.000000
H 0.420000 0.900000 0.250000
H 0.770000 0.000000 0.500000
4
deterministic SOAP/Valle-Oganov reference frame 217
C 0.140000 0.480000 0.250000
H 0.490000 1.380000 0.500000
H 0.840000 0.480000 0.000000
H 1.190000 1.380000 0.250000
3
deterministic SOAP/Valle-Oganov reference frame 218
Si 0.210000 0.960000 0.500000
O 0.560000 0.060000 0.000000
O 0.910000 0.960000 0.250000
4
deterministic SOAP/Valle-Oganov reference frame 219
S 0.280000 1.350000 0.000000
O 0.630000 0.450000 0.250000
O 0.980000 1.350000 0.500000
O 1.330000 0.450000 0.000000
3
deterministic SOAP/Valle-Oganov reference frame 220
Cl 0.000000 0.030000 0.250000
C 0.350000 0.930000 0.500000
H 0.700000 0.030000 0.000000
4
deterministic SOAP/Valle-Oganov reference frame 221
H 0.070000 0.510000 0.500000
C 0.420000 1.410000 0.000000
O 0.770000 0.510000 0.250000
S 1.120000 1.410000 0.500000
4
deterministic SOAP/Valle-Oganov reference frame 222
O 0.140000 0.900000 0.000000
C 0.490000 0.000000 0.250000
H 0.840000 0.900000 0.500000
H 1.190000 0.000000 0.000000
4
deterministic SOAP/Valle-Oganov reference frame 223
Si 0.210000 1.380000 0.250000
O 0.560000 0.480000 0.500000
H 0.910000 1.380000 0.000000
H 1.260000 0.480000 0.250000
3
deterministic SOAP/Valle-Oganov reference frame 224
O 0.280000 0.060000 0.500000
H 0.630000 0.960000 0.000000
H 0.980000 0.060000 0.250000
4
deterministic SOAP/Valle-Oganov reference frame 225
C 0.000000 0.450000 0.000000
H 0.350000 1.350000 0.250000
H 0.700000 0.450000 0.500000
H 1.050000 1.350000 0.000000
3
deterministic SOAP/Valle-Oganov reference frame 226
Si 0.070000 0.930000 0.250000
O 0.420000 0.030000 0.500000
O 0.770000 0.930000 0.000000
4
deterministic SOAP/Valle-Oganov reference frame 227
S 0.140000 1.410000 0.500000
O 0.490000 0.510000 0.000000
O 0.840000 1.410000 0.250000
O 1.190000 0.510000 0.500000
3
deterministic SOAP/Valle-Oganov reference frame 228
Cl 0.210000 0.000000 0.000000
C 0.560000 0.900000 0.250000
H 0.910000 0.000000 0.500000
4
deterministic SOAP/Valle-Oganov reference frame 229
H 0.280000 0.480000 0.250000
C 0.630000 1.380000 0.500000
O 0.980000 0.480000 0.000000
S 1.330000 1.380000 0.250000
4
deterministic SOAP/Valle-Oganov reference frame 230
O 0.000000 0.960000 0.500000
C 0.350000 0.060000 0.000000
H 0.700000 0.960000 0.250000
H 1.050000 0.060000 0.500000
4
deterministic SOAP/Valle-Oganov reference frame 231
Si 0.070000 1.350000 0.000000
O 0.420000 0.450000 0.250000
H 0.770000 1.350000 0.500000
H 1.120000 0.450000 0.000000
3
deterministic SOAP/Valle-Oganov reference frame 232
O 0.140000 0.030000 0.250000
H 0.490000 0.930000 0.500000
H 0.840000 0.030000 0.000000
4
deterministic SOAP/Valle-Oganov reference frame 233
C 0.210000 0.510000 0.500000
H 0.560000 1.410000 0.000000
H 0.910000 0.510000 0.250000
H 1.260000 1.410000 0.500000
3
deterministic SOAP/Valle-Oganov reference frame 234
Si 0.280000 0.900000 0.000000
O 0.630000 0.000000 0.250000
O 0.980000 0.900000 0.500000
4
deterministic SOAP/Valle-Oganov reference frame 235
S 0.000000 1.380000 0.250000
O 0.350000 0.480000 0.500000
O 0.700000 1.380000 0.000000
O 1.050000 0.480000 0.250000
3
deterministic SOAP/Valle-Oganov reference frame 236
Cl 0.070000 0.060000 0.500000
C 0.420000 0.960000 0.000000
H 0.770000 0.060000 0.250000
4
deterministic SOAP/Valle-Oganov reference frame 237
H 0.140000 0.450000 0.000000
C 0.490000 1.350000 0.250000
O 0.840000 0.450000 0.500000
S 1.190000 1.350000 0.000000
4
deterministic SOAP/Valle-Oganov reference frame 238
O 0.210000 0.930000 0.250000
C 0.560000 0.030000 0.500000
H 0.910000 0.930000 0.000000
H 1.260000 0.030000 0.250000
4
deterministic SOAP/Valle-Oganov reference frame 239
Si 0.280000 1.410000 0.500000
O 0.630000 0.510000 0.000000
H 0.980000 1.410000 0.250000
H 1.330000 0.510000 0.500000
3
deterministic SOAP/Valle-Oganov reference frame 240
O 0.000000 0.000000 0.000000
H 0.350000 0.900000 0.250000
H 0.700000 0.000000 0.500000
4
deterministic SOAP/Valle-Oganov reference frame 241
C 0.070000 0.480000 0.250000
H 0.420000 1.380000 0.500000
H 0.770000 0.480000 0.000000
H 1.120000 1.380000 0.250000
3
deterministic SOAP/Valle-Oganov reference frame 242
Si 0.140000 0.960000 0.500000
O 0.490000 0.060000 0.000000
O 0.840000 0.960000 0.250000
4
deterministic SOAP/Valle-Oganov reference frame 243
S 0.210000 1.350000 0.000000
O 0.560000 0.450000 0.250000
O 0.910000 1.350000 0.500000
O 1.260000 0.450000 0.000000
3
deterministic SOAP/Valle-Oganov reference frame 244
Cl 0.280000 0.030000 0.250000
C 0.630000 0.930000 0.500000
H 0.980000 0.030000 0.000000
4
deterministic SOAP/Valle-Oganov reference frame 245
H 0.000000 0.510000 0.500000
C 0.350000 1.410000 0.000000
O 0.700000 0.510000 0.250000
S 1.050000 1.410000 0.500000
4
deterministic SOAP/Valle-Oganov reference frame 246
O 0.070000 0.900000 0.000000
C 0.420000 0.000000 0.250000
H 0.770000 0.900000 0.500000
H 1.120000 0.000000 0.000000
4
deterministic SOAP/Valle-Oganov reference frame 247
Si 0.140000 1.380000 0.250000
O 0.490000 0.480000 0.500000
H 0.840000 1.380000 0.000000
H 1.190000 0.480000 0.250000
3
deterministic SOAP/Valle-Oganov reference frame 248
O 0.210000 0.060000 0.500000
H 0.560000 0.960000 0.000000
H 0.910000 0.060000 0.250000
4
deterministic SOAP/Valle-Oganov reference frame 249
C 0.280000 0.450000 0.000000
H 0.630000 1.350000 0.250000
H 0.980000 0.450000 0.500000
H 1.330000 1.350000 0.000000
3
deterministic SOAP/Valle-Oganov reference frame 250
Si 0.000000 0.930000 0.250000
O 0.350000 0.030000 0.500000
O 0.700000 0.930000 0.000000
4
deterministic SOAP/Valle-Oganov reference frame 251
S 0.070000 1.410000 0.500000
O 0.420000 0.510000 0.000000
O 0.770000 1.410000 0.250000
O 1.120000 0.510000 0.500000
3
deterministic SOAP/Valle-Oganov reference frame 252
Cl 0.140000 0.000000 0.000000
C 0.490000 0.900000 0.250000
H 0.840000 0.000000 0.500000
4
deterministic SOAP/Valle-Oganov reference frame 253
H 0.210000 0.480000 0.250000
C 0.560000 1.380000 0.500000
O 0.910000 0.480000 0.000000
S 1.260000 1.380000 0.250000
4
deterministic SOAP/Valle-Oganov reference frame 254
O 0.280000 0.960000 0.500000
C 0.630000 0.060000 0.000000
H 0.980000 0.960000 0.250000
H 1.330000 0.060000 0.500000
4
deterministic SOAP/Valle-Oganov reference frame 255
Si 0.000000 1.350000 0.000000
O 0.350000 0.450000 0.250000
H 0.700000 1.350000 0.500000
H 1.050000 0.450000 0.000000
3
deterministic SOAP/Valle-Oganov reference frame 256
O 0.070000 0.030000 0.250000
H 0.420000 0.930000 0.500000
H 0.770000 0.030000 0.000000
4
deterministic SOAP/Valle-Oganov reference frame 257
C 0.140000 0.510000 0.500000
H 0.490000 1.410000 0.000000
H 0.840000 0.510000 0.250000
H 1.190000 1.410000 0.500000
3
deterministic SOAP/Valle-Oganov reference frame 258
Si 0.210000 0.900000 0.000000
O 0.560000 0.000000 0.250000
O 0.910000 0.900000 0.500000
4
deterministic SOAP/Valle-Oganov reference frame 259
S 0.280000 1.380000 0.250000
O 0.630000 0.480000 0.500000
O 0.980000 1.380000 0.000000
O 1.330000 0.480000 0.250000
3
deterministic SOAP/Valle-Oganov reference frame 260
Cl 0.000000 0.060000 0.500000
C 0.350000 0.960000 0.000000
H 0.700000 0.060000 0.250000
4
deterministic SOAP/Valle-Oganov reference frame 261
H 0.070000 0.450000 0.000000
C 0.420000 1.350000 0.250000
O 0.770000 0.450000 0.500000
S 1.120000 1.350000 0.000000
4
deterministic SOAP/Valle-Oganov reference frame 262
O 0.140000 0.930000 0.250000
C 0.490000 0.030000 0.500000
H 0.840000 0.930000 0.000000
H 1.190000 0.030000 0.250000
4
deterministic SOAP/Valle-Oganov reference frame 263
Si 0.210000 1.410000 0.500000
O 0.560000 0.510000 0.000000
H 0.910000 1.410000 0.250000
H 1.260000 0.510000 0.500000
3
deterministic SOAP/Valle-Oganov reference frame 264
O 0.280000 0.000000 0.000000
H 0.630000 0.900000 0.250000
H 0.980000 0.000000 0.500000
4
deterministic SOAP/Valle-Oganov reference frame 265
C 0.000000 0.480000 0.250000
H 0.350000 1.380000 0.500000
H 0.700000 0.480000 0.000000
H 1.050000 1.380000 0.250000
3
deterministic SOAP/Valle-Oganov reference frame 266
Si 0.070000 0.960000 0.500000
O 0.420000 0.060000 0.000000
O 0.770000 0.960000 0.250000
4
deterministic SOAP/Valle-Oganov reference frame 267
S 0.140000 1.350000 0.000000
O 0.490000 0.450000 0.250000
O 0.840000 1.350000 0.500000
O 1.190000 0.450000 0.000000
3
deterministic SOAP/Valle-Oganov reference frame 268
Cl 0.210000 0.030000 0.250000
C 0.560000 0.930000 0.500000
H 0.910000 0.030000 0.000000
4
deterministic SOAP/Valle-Oganov reference frame 269
H 0.280000 0.510000 0.500000
C 0.630000 1.410000 0.000000
O 0.980000 0.510000 0.250000
S 1.330000 1.410000 0.500000
4
deterministic SOAP/Valle-Oganov reference frame 270
O 0.000000 0.900000 0.000000
C 0.350000 0.000000 0.250000
H 0.700000 0.900000 0.500000
H 1.050000 0.000000 0.000000
4
deterministic SOAP/Valle-Oganov reference frame 271
Si 0.070000 1.380000 0.250000
O 0.420000 0.480000 0.500000
H 0.770000 1.380000 0.000000
H 1.120000 0.480000 0.250000
3
deterministic SOAP/Valle-Oganov reference frame 272
O 0.140000 0.060000 0.500000
H 0.490000 0.960000 0.000000
H 0.840000 0.060000 0.250000
4
deterministic SOAP/Valle-Oganov reference frame 273
C 0.210000 0.450000 0.000000
H 0.560000 1.350000 0.250000
H 0.910000 0.450000 0.500000
H 1.260000 1.350000 0.000000
3
deterministic SOAP/Valle-Oganov reference frame 274
Si 0.280000 0.930000 0.250000
O 0.630000 0.030000 0.500000
O 0.980000 0.930000 0.000000
4
deterministic SOAP/Valle-Oganov reference frame 275
S 0.000000 1.410000 0.500000
O 0.350000 0.510000 0.000000
O 0.700000 1.410000 0.250000
O 1.050000 0.510000 0.500000
3
deterministic SOAP/Valle-Oganov reference frame 276
Cl 0.070000 0.000000 0.000000
C 0.420000 0.900000 0.250000
H 0.770000 0.000000 0.500000
4
deterministic SOAP/Valle-Oganov reference frame 277
H 0.140000 0.480000 0.250000
C 0.490000 1.380000 0.500000
O 0.840000 0.480000 0.000000
S 1.190000 1.380000 0.250000
4
deterministic SOAP/Valle-Oganov reference frame 278
O 0.210000 0.960000 0.500000
C 0.560000 0.060000 0.000000
H 0.910000 0.960000 0.250000
H 1.260000 0.060000 0.500000
4
deterministic SOAP/Valle-Oganov reference frame 279
Si 0.280000 1.350000 0.000000
O 0.630000 0.450000 0.250000
H 0.980000 1.350000 0.500000
H 1.330000 0.450000 0.000000
3
deterministic SOAP/Valle-Oganov reference frame 280
O 0.000000 0.030000 0.250000
H 0.350000 0.930000 0.500000
H 0.700000 0.030000 0.000000
4
deterministic SOAP/Valle-Oganov reference frame 281
C 0.070000 0.510000 0.500000
H 0.420000 1.410000 0.000000
H 0.770000 0.510000 0.250000
H 1.120000 1.410000 0.500000
3
deterministic SOAP/Valle-Oganov reference frame 282
Si 0.140000 0.900000 0.000000
O 0.490000 0.000000 0.250000
O 0.840000 0.900000 0.500000
4
deterministic SOAP/Valle-Oganov reference frame 283
S 0.210000 1.380000 0.250000
O 0.560000 0.480000 0.500000
O 0.910000 1.380000 0.000000
O 1.260000 0.480000 0.250000
3
deterministic SOAP/Valle-Oganov reference frame 284
Cl 0.280000 0.060000 0.500000
C 0.630000 0.960000 0.000000
H 0.980000 0.060000 0.250000
4
deterministic SOAP/Valle-Oganov reference frame 285
H 0.000000 0.450000 0.000000
C 0.350000 1.350000 0.250000
O 0.700000 0.450000 0.500000
S 1.050000 1.350000 0.000000
4
deterministic SOAP/Valle-Oganov reference frame 286
O 0.070000 0.930000 0.250000
C 0.420000 0.030000 0.500000
H 0.770000 0.930000 0.000000
H 1.120000 0.030000 0.250000
4
deterministic SOAP/Valle-Oganov reference frame 287
Si 0.140000 1.410000 0.500000
O 0.490000 0.510000 0.000000
H 0.840000 1.410000 0.250000
H 1.190000 0.510000 0.500000
3
deterministic SOAP/Valle-Oganov reference frame 288
O 0.210000 0.000000 0.000000
H 0.560000 0.900000 0.250000
H 0.910000 0.000000 0.500000
4
deterministic SOAP/Valle-Oganov reference frame 289
C 0.280000 0.480000 0.250000
H 0.630000 1.380000 0.500000
H 0.980000 0.480000 0.000000
H 1.330000 1.380000 0.250000
3
deterministic SOAP/Valle-Oganov reference frame 290
Si 0.000000 0.960000 0.500000
O 0.350000 0.060000 0.000000
O 0.700000 0.960000 0.250000
4
deterministic SOAP/Valle-Oganov reference frame 291
S 0.070000 1.350000 0.000000
O 0.420000 0.450000 0.250000
O 0.770000 1.350000 0.500000
O 1.120000 0.450000 0.000000
3
deterministic SOAP/Valle-Oganov reference frame 292
Cl 0.140000 0.030000 0.250000
C 0.490000 0.930000 0.500000
H 0.840000 0.030000 0.000000
4
deterministic SOAP/Valle-Oganov reference frame 293
H 0.210000 0.510000 0.500000
C 0.560000 1.410000 0.000000
O 0.910000 0.510000 0.250000
S 1.260000 1.410000 0.500000
4
deterministic SOAP/Valle-Oganov reference frame 294
O 0.280000 0.900000 0.000000
C 0.630000 0.000000 0.250000
H 0.980000 0.900000 0.500000
H 1.330000 0.000000 0.000000
4
deterministic SOAP/Valle-Oganov reference frame 295
Si 0.000000 1.380000 0.250000
O 0.350000 0.480000 0.500000
H 0.700000 1.380000 0.000000
H 1.050000 0.480000 0.250000
3
deterministic SOAP/Valle-Oganov reference frame 296
O 0.070000 0.060000 0.500000
H 0.420000 0.960000 0.000000
H 0.770000 0.060000 0.250000
4
deterministic SOAP/Valle-Oganov reference frame 297
C 0.140000 0.450000 0.000000
H 0.490000 1.350000 0.250000
H 0.840000 0.450000 0.500000
H 1.190000 1.350000 0.000000
3
deterministic SOAP/Valle-Oganov reference frame 298
Si 0.210000 0.930000 0.250000
O 0.560000 0.030000 0.500000
O 0.910000 0.930000 0.000000
4
deterministic SOAP/Valle-Oganov reference frame 299
S 0.280000 1.410000 0.500000
O 0.630000 0.510000 0.000000
O 0.980000 1.410000 0.250000
O 1.330000 0.510000 0.500000
